objective value:                                   45
sq1_0_0_50                                           1 	(obj:50)
sq1_0_1_72                                           1 	(obj:72)
sq1_0_2_16                                           1 	(obj:16)
sq1_1_0_12                                           1 	(obj:12)
sq1_1_1_46                                           1 	(obj:46)
sq2_0_0_77 1
sq2_0_1_76                                           1 	(obj:76)
sq2_0_2_20                                           1 	(obj:20)
sq2_1_0_1 1
sq2_1_1_58 1
sq2_1_2_114 1
sq2_2_0_95 1
sq2_2_1_40 1
sq2_2_2_39 1
sq3_0_0_80                                           1 	(obj:80)
sq3_0_1_75 1
sq3_0_2_53 1
sq3_1_0_43                                           1 	(obj:43)
sq3_1_1_69 1
sq3_1_2_96 1
sq3_2_0_85 1
sq3_2_1_64 1
sq3_2_2_59 1
sq4_0_0_114 1
sq4_0_1_85 1
sq4_0_2_64 1
sq4_1_0_39 1
sq4_1_1_88 1
sq4_1_2_137 1
sq4_2_0_111 1
sq4_2_1_90 1
sq4_2_2_62 1
